Maximize
score: + 64 c0 + 154 c1 + 2814 c2 + 577 c3 + 64 c4 + 150 c5 + 110 c6 + 143 c7 + 218 c8 + 64 c9 + 143 c10 + 180 c11 + 390 c12 + 494 c13 + 477 c14 + 110 c15 + 147 c16 + 36 c17 + 359 c18 + 81 c19 + 36 c20 + 72 c21 + 50 c22 + 121 c23 + 105 c24 + 81 c25 + 108 c26 + 187 c27 + 82 c28 + 252 c29 + 883 c30 + 27 c31 + 64 c32 + 56 c33 + 48 c34 + 225 c35 + 57 c36 + 51 c37 + 56 c38 + 252 c39 + 936 c40 + 323 c41 + 71 c42 + 96 c43 + 251 c44 + 126 c45 + 503 c46 + 7887 c47 + 1608 c48 + 96 c49 + 128 c50 + 22 c51 + 1474 c52 + 73 c53 + 2814 c54 + 1072 c55 + 350 c56 + 163 c57 + 135 c58 + 131 c59 + 116 c60 + 121 c61 + 99 c62 + 530 c63 + 41 c64 + 56 c65 + 42 c66 + 16 c67 + 160 c68 + 182 c69 + 141 c70 + 81 c71 + 287 c72 + 50 c73 + 960 c74 + 25 c75 + 86 c76 + 24 c77 + 412 c78 + 17 c79 + 292 c80 + 162 c81 + 534 c82 + 77 c83 + 55 c84 + 251 c85 + 218 c86 + 36 c87 + 158 c88 + 421 c89 + 135 c90 + 22 c91 + 1762 c92 + 27 c93 + 190 c94 + 16 c95 + 27 c96 + 22 c97 + 304 c98 + 255 c99 + 153 c100 + 48 c101 + 7 c102 + 414 c103 + 645 c104 + 240 c105 + 53 c106 + 16 c107 + 93 c108 + 73 c109 + 280 c110 + 91 c111 + 26 c112 + 40 c113 + 40 c114 + 65 c115 + 28 c116 + 457 c117 + 33 c118 + 160 c119 + 198 c120 + 3201 c121 + 1476 c122 + 12 c123 + 74 c124 + 299 c125 + 143 c126 + 24 c127 + 428 c128 + 2231 c129 + 970 c130 + 54 c131 + 131 c132 + 30 c133 + 239 c134 + 285 c135 + 102 c136 + 49 c137 + 116 c138 + 25 c139 + 145 c140 + 24 c141 + 73 c142 + 283 c143 + 88 c144 + 35 c145 + 80 c146 + 107 c147 + 72 c148 + 198 c149 + 93 c150 + 410 c151 + 27 c152 + 121 c153 + 31 c154 + 121 c155 + 14 c156 + 28 c157 + 91 c158 + 91 c159 + 492 c160 + 1558 c161 + 224 c162 + 50 c163 + 29 c164 + 56 c165 - 0.377 s0 - 0.28 s1 - 0.387 s2 - 0.737 s3 - 0.39 s4 - 0.36 s5 - 0.363 s6 - 0.617 s7 - 0.413 s8 - 0.813 s9 - 0.503 s10 - 0.647 s11 - 0.697 s12 - 0.05 s13 - 0.453 s14 - 0.397 s15 - 0.88 s16 - 0.017 s17 - 0.2 s18 - 0.28 s19 - 0.05 s20 - 0.05 s21 - 0.27 s22 - 0.39 s23 - 0.247 s24 - 0.433 s25 - 0.097 s26 - 0.25 s27 - 0.293 s28 - 0.42 s29 - 0.19 s30 - 0.263 s31 - 0.27 s32 - 0.33 s33 - 0.423 s34 - 0.0 s35 - 0.52 s36 - 0.33 s37 - 0.617 s38 - 0.317 s39 - 0.17 s40 - 0.49 s41 - 0.273 s42 - 0.593 s43 - 0.29 s44 - 0.88 s45 - 0.017 s46 - 0.2 s47 - 0.28 s48 - 0.05 s49 - 0.05 s50 - 0.27 s51 - 0.39 s52 - 0.247 s53 - 0.433 s54 - 0.297 s55 - 0.24 s56 - 0.25 s57 - 0.293 s58 - 0.42 s59 - 0.19 s60 - 0.263 s61 - 0.27 s62 - 0.33 s63 - 0.423 s64 - 0.0 s65 - 0.52 s66 - 0.39 s67 - 0.617 s68 - 0.317 s69 - 0.17 s70 - 0.49 s71 - 0.187 s72 - 0.273 s73 - 0.593 s74 - 0.29 s75 - 0.593 s76 - 0.28 s77 - 0.193 s78 - 0.19 s79 - 0.26 s80 - 0.34 s81 - 0.193 s82 - 0.47 s83 - 0.02 s84 - 0.333 s85 - 0.48 s86 - 0.02 s87 - 0.29 s88 - 0.0 s89 - 0.593 s90 - 0.28 s91 - 0.193 s92 - 0.19 s93 - 0.26 s94 - 0.34 s95 - 0.47 s96 - 0.02 s97 - 0.333 s98 - 0.1 s99 - 0.38 s100 - 0.02 s101 - 0.29 s102 - 0.0 s103 - 0.317 s104 - 0.523 s105 - 0.4 s106 - 0.717 s107 - 0.597 s108 - 0.29 s109 - 0.307 s110 - 0.013 s111 - 0.607 s112 - 0.34 s113 - 0.617 s114 - 0.34 s115 - 0.573 s116 - 0.357 s117 - 0.52 s118 - 0.847 s119 - 0.143 s120 - 0.463 s121 - 0.303 s122 - 0.59 s123 - 0.267 s124 - 0.897 s125 - 0.48 s126 - 0.26 s127 - 0.543 s128 - 0.46 s129 - 0.417 s130 - 0.35 s131 - 1.0 s132 - 0.307 s133

Subject To
index_0: 1 s78 + 1 s80 + 1 s84 + 1 s87 + 1 s92 + 1 s94 + 1 s97 + 1 s101 - c0 >= 0
index_1: 1 s14 + 1 s15 + 1 s16 + 1 s79 + 1 s82 + 1 s85 + 1 s88 + 1 s93 + 1 s98 + 1 s102 + 1 s133 - c1 >= 0
index_2: 1 s20 + 1 s21 + 1 s34 + 1 s39 + 1 s49 + 1 s50 + 1 s64 + 1 s69 + 1 s77 + 1 s79 + 1 s82 + 1 s83 + 1 s85 + 1 s86 + 1 s88 + 1 s91 + 1 s93 + 1 s96 + 1 s98 + 1 s100 + 1 s102 - c2 >= 0
index_3: 6 s25 + 1 s75 + 2 s76 + 2 s83 + 4 s86 + 2 s90 + 2 s96 + 1 s99 + 3 s100 - c3 >= 0
index_4: 1 s36 + 1 s39 + 1 s41 + 1 s42 + 1 s66 + 1 s69 + 1 s71 + 1 s73 - c4 >= 0
index_5: 1 s27 + 2 s80 + 1 s81 + 1 s82 + 2 s94 + 1 s95 + 1 s104 + 1 s132 - c5 >= 0
index_6: 1 s23 + 1 s24 + 1 s29 + 1 s76 + 1 s77 + 1 s79 + 1 s90 + 1 s91 + 1 s93 + 1 s132 - c6 >= 0
index_7: 1 s14 + 1 s15 + 1 s16 + 1 s79 + 1 s82 + 1 s85 + 1 s88 + 1 s93 + 1 s98 + 1 s102 + 1 s133 - c7 >= 0
index_8: 1 s14 + 1 s15 + 1 s16 + 1 s22 + 1 s79 + 1 s82 + 1 s85 + 1 s88 + 1 s93 + 1 s98 + 1 s102 + 1 s105 + 1 s133 - c8 >= 0
index_9: 1 s18 + 1 s19 + 1 s47 + 1 s48 + 2 s109 + 1 s110 + 1 s112 - c9 >= 0
index_10: 1 s14 + 1 s15 + 1 s16 + 1 s79 + 1 s82 + 1 s85 + 1 s88 + 1 s93 + 1 s98 + 1 s102 + 1 s133 - c10 >= 0
index_11: 2 s25 + 1 s76 + 1 s78 + 1 s83 + 2 s86 + 1 s90 + 1 s92 + 1 s96 + 1 s99 + 1 s100 - c11 >= 0
index_12: 1 s8 + 1 s22 + 1 s26 + 1 s38 + 1 s40 + 1 s41 + 1 s42 + 1 s51 + 1 s55 + 1 s68 + 1 s70 + 1 s71 + 1 s73 + 1 s78 + 1 s92 - c12 >= 0
index_13: 1 s24 + 1 s25 + 2 s76 + 1 s77 + 1 s78 + 1 s83 + 1 s85 + 2 s86 + 2 s90 + 1 s91 + 1 s92 + 1 s96 + 1 s98 + 1 s99 + 1 s100 + 1 s107 - c13 >= 0
index_14: 1 s24 + 1 s25 + 2 s76 + 1 s77 + 1 s78 + 1 s83 + 1 s85 + 2 s86 + 2 s90 + 1 s91 + 1 s92 + 1 s96 + 1 s98 + 1 s99 + 1 s100 + 2 s107 - c14 >= 0
index_15: 1 s39 + 2 s43 + 1 s69 + 2 s74 + 1 s88 + 1 s102 + 1 s130 + 1 s131 - c15 >= 0
index_16: 1 s14 + 1 s15 + 1 s16 + 1 s79 + 1 s82 + 1 s85 + 1 s88 + 1 s93 + 1 s98 + 1 s102 + 1 s107 + 1 s108 + 1 s133 - c16 >= 0
index_17: 1 s37 + 1 s38 + 1 s39 + 1 s67 + 1 s68 + 1 s69 - c17 >= 0
index_18: 1 s15 + 1 s19 + 1 s29 + 2 s43 + 1 s48 + 1 s59 + 2 s74 + 1 s76 + 1 s81 + 1 s83 + 1 s85 + 1 s88 + 1 s90 + 1 s95 + 1 s96 + 1 s98 + 1 s102 + 2 s104 + 1 s107 + 1 s112 + 1 s133 - c18 >= 0
index_19: 1 s4 + 1 s16 + 1 s19 + 1 s29 + 1 s45 + 1 s48 + 1 s59 + 1 s104 + 1 s106 - c19 >= 0
index_20: 1 s24 + 1 s26 + 1 s34 + 1 s37 + 1 s38 + 1 s39 + 1 s42 + 1 s53 + 1 s55 + 1 s64 + 1 s67 + 1 s68 + 1 s69 + 1 s73 - c20 >= 0
index_21: 1 s4 + 1 s16 + 1 s19 + 1 s45 + 1 s48 + 1 s59 + 1 s104 + 1 s106 - c21 >= 0
index_22: 1 s18 + 1 s19 + 1 s47 + 1 s48 + 1 s109 + 1 s110 + 2 s112 - c22 >= 0
index_23: 1 s28 + 1 s38 + 1 s39 + 1 s58 + 1 s68 + 1 s69 + 1 s85 + 1 s88 + 1 s98 + 1 s102 + 1 s132 - c23 >= 0
index_24: 1 s16 + 1 s38 + 1 s39 + 1 s43 + 1 s68 + 1 s69 + 1 s74 - c24 >= 0
index_25: 1 s4 + 1 s16 + 1 s19 + 1 s29 + 1 s45 + 1 s48 + 1 s59 + 1 s104 + 1 s106 - c25 >= 0
index_26: 2 s4 + 2 s16 + 1 s19 + 1 s29 + 1 s45 + 1 s48 + 2 s59 + 1 s104 + 1 s106 - c26 >= 0
index_27: 1 s12 + 6 s16 + 5 s23 + 1 s28 + 5 s29 + 1 s34 + 3 s37 + 1 s41 + 1 s44 + 5 s52 + 5 s59 + 1 s64 + 3 s67 + 1 s71 + 1 s75 - c27 >= 0
index_28: 1 s18 + 1 s27 + 1 s36 + 1 s41 + 1 s42 + 1 s57 + 1 s66 + 1 s71 + 1 s73 - c28 >= 0
index_29: 4 s22 + 2 s26 + 1 s28 + 1 s29 + 1 s31 + 1 s32 + 1 s42 + 3 s51 + 2 s55 + 1 s58 + 1 s59 + 1 s61 + 1 s62 + 1 s73 + 1 s76 + 1 s78 + 1 s80 + 1 s90 + 1 s92 + 1 s94 - c29 >= 0
index_30: 1 s15 + 1 s18 + 1 s19 + 1 s23 + 1 s24 + 1 s25 + 1 s28 + 1 s30 + 2 s31 + 1 s32 + 1 s39 + 1 s69 + 1 s76 + 1 s77 + 1 s78 + 1 s83 + 1 s90 + 1 s91 + 1 s92 + 1 s96 + 1 s104 + 2 s105 + 3 s107 + 1 s109 + 1 s110 + 1 s112 + 1 s132 + 1 s133 - c30 >= 0
index_31: 2 s105 + 1 s107 + 2 s108 + 1 s110 - c31 >= 0
index_32: 1 s36 + 1 s39 + 1 s41 + 1 s42 + 1 s66 + 1 s69 + 1 s71 + 1 s73 - c32 >= 0
index_33: 1 s37 + 2 s38 + 1 s39 + 1 s41 + 1 s67 + 2 s68 + 1 s69 + 1 s71 - c33 >= 0
index_34: 4 s34 + 1 s36 + 4 s64 + 1 s66 - c34 >= 0
index_35: 2 s38 + 2 s68 + 2 s83 + 2 s85 + 2 s96 + 2 s98 + 1 s126 + 2 s128 + 3 s132 - c35 >= 0
index_36: 1 s27 + 2 s28 + 1 s32 + 1 s57 + 3 s58 + 1 s62 - c36 >= 0
index_37: 1 s27 + 1 s28 + 1 s32 + 2 s57 + 1 s58 + 1 s62 - c37 >= 0
index_38: 1 s16 + 1 s38 + 1 s39 + 1 s43 + 1 s68 + 1 s69 + 1 s74 - c38 >= 0
index_39: 1 s8 + 1 s11 + 2 s116 + 1 s117 + 1 s118 + 1 s126 - c39 >= 0
index_40: 1 s16 + 1 s26 + 1 s55 + 2 s76 + 1 s77 + 2 s81 + 1 s83 + 1 s86 + 2 s90 + 1 s91 + 2 s95 + 1 s96 + 1 s100 + 2 s112 + 1 s113 + 1 s114 + 1 s127 + 1 s128 + 1 s129 + 1 s131 + 1 s132 - c40 >= 0
index_41: 1 s15 + 1 s19 + 1 s25 + 1 s48 + 1 s76 + 1 s81 + 2 s83 + 1 s86 + 1 s90 + 1 s95 + 2 s96 + 1 s100 + 1 s104 + 1 s112 + 1 s133 - c41 >= 0
index_42: 1 s16 + 1 s20 + 2 s43 + 1 s76 + 1 s90 + 1 s106 + 1 s112 + 1 s132 - c42 >= 0
index_43: 1 s38 + 1 s68 + 1 s83 + 1 s85 + 1 s96 + 1 s98 + 1 s128 + 1 s132 - c43 >= 0
index_44: 5 s5 + 4 s6 + 3 s11 + 1 s112 + 7 s119 + 1 s120 + 1 s123 + 1 s124 + 5 s125 + 4 s126 + 1 s129 - c44 >= 0
index_45: 3 s12 + 2 s14 + 1 s108 + 1 s112 + 2 s114 - c45 >= 0
index_46: 9 s3 + 8 s4 + 4 s116 + 4 s117 + 14 s118 + 1 s120 - c46 >= 0
index_47: 1 s5 + 1 s6 + 1 s10 + 1 s12 + 5 s14 + 1 s15 + 2 s16 + 2 s17 + 1 s18 + 1 s22 + 1 s23 + 1 s24 + 1 s28 + 2 s29 + 1 s30 + 1 s32 + 1 s33 + 1 s34 + 1 s35 + 1 s36 + 1 s38 + 1 s40 + 3 s41 + 1 s42 + 1 s43 + 3 s44 + 2 s45 + 1 s46 + 1 s53 + 1 s63 + 1 s64 + 1 s65 + 2 s66 + 1 s67 + 1 s68 + 3 s71 + 2 s72 + 4 s75 + 1 s76 + 1 s77 + 1 s80 + 1 s89 + 1 s90 + 1 s94 + 1 s103 + 1 s104 + 2 s105 + 1 s106 + 1 s107 + 1 s108 + 6 s109 + 1 s110 + 2 s112 + 1 s113 + 1 s114 + 1 s116 + 1 s120 + 1 s123 + 2 s125 + 1 s126 + 1 s127 + 5 s128 + 1 s129 + 2 s130 + 1 s131 + 1 s132 + 1 s133 - c47 >= 0
index_48: 1 s25 + 1 s26 + 1 s78 + 1 s80 + 1 s81 + 1 s84 + 1 s87 + 1 s92 + 1 s94 + 1 s95 + 1 s97 + 1 s101 - c48 >= 0
index_49: 1 s38 + 1 s39 + 1 s43 + 1 s68 + 1 s69 + 1 s74 - c49 >= 0
index_50: 2 s43 + 2 s74 + 1 s85 + 1 s88 + 1 s98 + 1 s102 - c50 >= 0
index_51: 1 s15 + 1 s77 + 1 s91 + 1 s108 + 1 s111 + 2 s114 + 1 s127 + 1 s132 - c51 >= 0
index_52: 1 s48 + 1 s51 + 1 s52 + 1 s54 + 1 s55 + 1 s56 + 1 s57 + 1 s58 + 1 s59 + 1 s61 + 1 s62 - c52 >= 0
index_53: 3 s16 + 1 s18 + 1 s19 + 2 s37 + 4 s45 + 1 s47 + 1 s48 + 2 s67 - c53 >= 0
index_54: 1 s0 + 1 s1 + 1 s2 + 1 s3 + 1 s4 + 1 s8 + 1 s9 + 1 s11 + 1 s37 + 1 s44 + 1 s46 + 1 s47 + 1 s60 + 1 s99 + 1 s114 + 1 s117 + 1 s118 + 1 s119 + 1 s121 + 1 s122 + 1 s124 - c54 >= 0
index_55: 1 s13 + 1 s27 + 1 s31 + 1 s63 + 1 s70 + 1 s74 + 1 s111 + 1 s126 - c55 >= 0
index_56: 1 s14 + 1 s15 + 4 s16 + 1 s21 + 1 s67 + 1 s79 + 1 s82 + 1 s85 + 1 s88 + 1 s93 + 1 s98 + 1 s102 + 1 s130 + 1 s133 - c56 >= 0
index_57: 18 s45 - c57 >= 0
index_58: 3 s16 + 1 s21 + 11 s45 + 1 s50 - c58 >= 0
index_59: 1 s12 + 6 s16 + 1 s41 + 16 s45 - c59 >= 0
index_60: 1 s79 + 1 s81 + 1 s82 + 1 s85 + 1 s88 + 1 s93 + 1 s95 + 1 s98 + 1 s102 + 1 s113 + 1 s114 + 1 s127 + 1 s132 + 1 s133 - c60 >= 0
index_61: 5 s16 + 7 s41 + 7 s71 - c61 >= 0
index_62: 3 s16 + 4 s41 + 5 s71 - c62 >= 0
index_63: 1 s14 + 16 s116 + 7 s117 - c63 >= 0
index_64: 1 s76 + 1 s77 + 1 s81 + 2 s83 + 1 s86 + 1 s90 + 1 s91 + 1 s95 + 2 s96 + 1 s100 + 4 s132 - c64 >= 0
index_65: 1 s16 + 1 s38 + 1 s39 + 1 s43 + 1 s68 + 1 s69 + 1 s74 - c65 >= 0
index_66: 2 s18 + 6 s47 - c66 >= 0
index_67: 1 s12 + 1 s104 + 2 s105 + 3 s110 + 1 s112 + 2 s113 - c67 >= 0
index_68: 2 s78 + 2 s83 + 2 s86 + 2 s92 + 2 s96 + 2 s100 - c68 >= 0
index_69: 1 s28 + 1 s32 + 1 s44 + 1 s58 + 1 s62 + 1 s75 + 1 s110 - c69 >= 0
index_70: 1 s22 + 1 s24 + 1 s25 + 1 s27 + 1 s29 + 1 s31 + 1 s33 + 1 s36 + 1 s38 + 1 s42 + 1 s44 + 1 s57 + 1 s59 + 1 s66 + 1 s68 + 2 s72 + 1 s73 + 1 s75 + 1 s77 + 1 s88 + 1 s91 + 1 s102 + 1 s106 - c70 >= 0
index_71: 1 s16 + 2 s23 + 2 s29 + 2 s52 + 2 s59 + 1 s67 + 2 s76 + 1 s90 + 2 s112 - c71 >= 0
index_72: 1 s6 + 1 s7 + 1 s14 + 1 s15 + 1 s118 + 1 s126 + 1 s127 + 1 s128 + 1 s130 + 1 s131 + 1 s132 + 1 s133 - c72 >= 0
index_73: 1 s13 + 1 s107 + 1 s128 + 4 s131 + 2 s132 - c73 >= 0
index_74: 1 s24 + 1 s25 + 1 s28 + 1 s33 + 1 s39 + 1 s63 + 1 s69 + 3 s76 + 1 s77 + 1 s78 + 1 s83 + 1 s85 + 2 s86 + 1 s88 + 4 s90 + 1 s91 + 1 s92 + 1 s96 + 1 s98 + 1 s99 + 1 s100 + 1 s102 + 2 s107 + 1 s132 - c74 >= 0
index_75: 1 s76 + 3 s112 + 1 s113 - c75 >= 0
index_76: 5 s106 + 1 s108 + 3 s116 + 6 s124 - c76 >= 0
index_77: 1 s76 + 1 s86 + 1 s90 + 1 s100 + 1 s128 + 1 s131 + 1 s132 - c77 >= 0
index_78: 22 s2 - c78 >= 0
index_79: 6 s3 + 6 s9 - c79 >= 0
index_80: 1 s47 + 1 s52 + 1 s53 + 1 s54 + 1 s58 + 1 s60 + 2 s61 + 1 s62 - c80 >= 0
index_81: 1 s16 + 1 s28 + 1 s31 + 1 s32 + 1 s33 + 1 s67 + 1 s126 + 1 s127 + 2 s128 + 1 s129 + 1 s132 - c81 >= 0
index_82: 20 s0 + 15 s1 + 1 s2 + 5 s3 + 5 s114 + 5 s115 + 1 s117 - c82 >= 0
index_83: 2 s115 + 3 s116 + 3 s117 - c83 >= 0
index_84: 8 s115 - c84 >= 0
index_85: 1 s16 + 1 s23 + 1 s24 + 2 s27 + 1 s29 + 1 s30 + 1 s37 + 1 s67 + 1 s76 + 1 s79 + 1 s80 + 1 s81 + 1 s82 + 1 s90 + 1 s93 + 1 s94 + 1 s95 + 2 s132 - c85 >= 0
index_86: 1 s24 + 1 s28 + 1 s32 + 1 s53 + 2 s58 + 2 s62 - c86 >= 0
index_87: 2 s12 + 1 s14 + 1 s34 + 1 s64 + 1 s107 + 1 s108 + 3 s112 - c87 >= 0
index_88: 1 s3 + 1 s83 + 1 s86 + 1 s96 + 1 s100 + 1 s105 - c88 >= 0
index_89: 1 s34 + 3 s36 + 1 s37 + 1 s38 + 1 s64 + 4 s66 + 1 s67 + 1 s68 + 1 s80 + 1 s81 + 1 s94 + 1 s95 + 1 s106 + 1 s108 + 1 s127 + 1 s130 + 1 s132 - c89 >= 0
index_90: 1 s38 + 1 s39 + 1 s43 + 1 s68 + 1 s69 + 1 s85 + 1 s88 + 1 s98 + 1 s102 + 1 s105 + 1 s106 + 1 s130 - c90 >= 0
index_91: 1 s43 + 1 s66 + 2 s74 + 1 s131 - c91 >= 0
index_92: 1 s16 + 1 s18 + 1 s19 + 1 s20 + 2 s23 + 2 s24 + 1 s25 + 1 s27 + 2 s28 + 1 s29 + 1 s30 + 2 s31 + 2 s32 + 1 s33 + 1 s34 + 1 s36 + 1 s37 + 3 s38 + 1 s39 + 2 s41 + 1 s42 + 1 s43 + 1 s44 + 1 s63 + 1 s64 + 1 s66 + 1 s67 + 3 s68 + 1 s69 + 2 s71 + 1 s72 + 1 s73 + 1 s74 + 1 s75 + 1 s76 + 1 s77 + 1 s90 + 1 s112 - c92 >= 0
index_93: 2 s43 + 2 s74 + 1 s114 + 1 s131 - c93 >= 0
index_94: 1 s39 + 2 s43 + 1 s69 + 2 s74 + 1 s88 + 1 s102 + 1 s130 + 1 s131 - c94 >= 0
index_95: 1 s43 + 1 s44 + 1 s74 + 1 s75 + 1 s86 - c95 >= 0
index_96: 2 s105 + 2 s108 + 3 s110 + 2 s113 + 1 s114 - c96 >= 0
index_97: 1 s25 + 1 s31 + 2 s41 + 1 s71 + 1 s76 + 1 s90 - c97 >= 0
index_98: 1 s13 + 1 s110 + 1 s123 + 2 s128 + 2 s131 - c98 >= 0
index_99: 3 s23 + 3 s24 + 1 s28 + 3 s29 + 3 s30 + 2 s31 + 1 s32 + 3 s52 + 3 s53 + 1 s55 + 3 s59 + 3 s60 + 1 s107 - c99 >= 0
index_100: 2 s53 + 2 s54 + 2 s55 - c100 >= 0
index_101: 1 s118 + 7 s125 - c101 >= 0
index_102: 1 s8 + 1 s11 + 1 s12 + 2 s123 - c102 >= 0
index_103: 2 s4 + 3 s5 + 1 s6 + 3 s7 + 2 s8 + 4 s11 + 2 s12 + 2 s108 + 2 s114 + 2 s118 + 2 s120 + 2 s123 + 2 s126 + 3 s127 + 2 s129 + 2 s130 - c103 >= 0
index_104: 1 s49 + 2 s52 + 3 s53 + 1 s54 + 4 s55 + 8 s56 + 1 s57 + 2 s58 + 1 s59 + 1 s60 + 3 s61 + 2 s62 + 1 s63 - c104 >= 0
index_105: 13 s54 + 2 s56 - c105 >= 0
index_106: 2 s44 + 1 s75 + 1 s76 + 1 s90 + 1 s104 + 1 s106 + 1 s107 + 1 s114 - c106 >= 0
index_107: 1 s15 + 2 s108 + 2 s112 - c107 >= 0
index_108: 1 s23 + 1 s29 + 1 s38 + 1 s42 + 1 s43 + 1 s44 + 1 s68 + 1 s73 + 1 s74 + 2 s75 + 2 s80 + 1 s94 - c108 >= 0
index_109: 1 s76 + 1 s77 + 1 s83 + 1 s86 + 1 s90 + 1 s91 + 1 s96 + 1 s100 + 2 s105 + 3 s107 + 3 s109 + 3 s113 - c109 >= 0
index_110: 1 s14 + 1 s15 + 1 s19 + 1 s29 + 1 s48 + 1 s59 + 1 s104 + 1 s105 + 3 s107 + 1 s108 + 1 s120 + 1 s133 - c110 >= 0
index_111: 1 s8 + 5 s119 + 8 s123 - c111 >= 0
index_112: 9 s121 + 5 s122 - c112 >= 0
index_113: 1 s28 + 1 s31 + 1 s32 + 1 s58 + 2 s61 + 1 s62 - c113 >= 0
index_114: 2 s36 + 1 s37 + 1 s38 + 2 s66 + 1 s67 + 1 s68 - c114 >= 0
index_115: 3 s4 + 2 s19 + 1 s22 + 3 s48 + 2 s104 + 3 s106 - c115 >= 0
index_116: 1 s22 + 1 s43 + 2 s51 + 1 s74 + 1 s86 + 1 s100 - c116 >= 0
index_117: 1 s15 + 2 s25 + 1 s26 + 1 s38 + 1 s55 + 2 s68 + 1 s76 + 1 s77 + 1 s79 + 1 s82 + 1 s83 + 1 s86 + 1 s90 + 1 s91 + 1 s93 + 1 s96 + 1 s100 + 1 s113 + 1 s130 + 1 s131 + 2 s132 + 2 s133 - c117 >= 0
index_118: 1 s7 + 4 s12 + 1 s108 + 3 s114 + 1 s123 - c118 >= 0
index_119: 4 s12 + 1 s14 + 2 s108 + 1 s114 - c119 >= 0
index_120: 1 s24 + 1 s29 + 1 s36 + 1 s38 + 1 s42 + 1 s66 + 1 s67 + 1 s68 + 1 s69 + 1 s73 + 1 s76 + 1 s77 + 1 s78 + 1 s79 + 1 s80 + 1 s82 + 1 s90 + 1 s91 + 1 s92 + 1 s93 + 1 s94 + 2 s132 - c120 >= 0
index_121: 1 s0 + 1 s5 + 1 s6 + 3 s10 + 1 s11 + 1 s12 + 1 s15 + 1 s36 + 1 s81 + 1 s88 + 1 s95 + 1 s102 + 1 s105 + 1 s106 + 2 s108 + 1 s109 + 3 s112 + 1 s113 + 1 s115 + 1 s118 + 1 s120 + 1 s123 + 1 s127 + 1 s128 + 2 s129 + 2 s132 - c121 >= 0
index_122: 1 s22 + 1 s23 + 1 s28 + 1 s32 + 1 s33 + 1 s34 + 1 s37 + 1 s38 + 1 s41 + 1 s51 + 1 s52 + 1 s63 + 1 s64 + 1 s68 + 1 s71 + 1 s72 + 1 s76 + 1 s90 - c122 >= 0
index_123: 3 s33 + 3 s63 - c123 >= 0
index_124: 1 s16 + 1 s21 + 1 s33 + 4 s34 + 2 s36 + 1 s50 + 3 s63 + 4 s64 + 1 s66 + 1 s68 - c124 >= 0
index_125: 1 s38 + 2 s43 + 1 s56 + 3 s74 - c125 >= 0
index_126: 1 s5 + 1 s6 + 1 s11 + 2 s119 + 1 s124 + 1 s125 + 1 s126 + 1 s127 + 2 s128 + 1 s129 + 1 s132 - c126 >= 0
index_127: 2 s22 + 1 s38 + 5 s51 + 2 s61 - c127 >= 0
index_128: 1 s18 + 1 s26 + 1 s33 + 1 s34 + 1 s37 + 1 s38 + 1 s43 + 1 s55 + 1 s64 + 1 s67 + 1 s68 + 1 s74 + 1 s76 + 1 s83 + 1 s86 + 1 s90 + 1 s91 + 1 s96 + 1 s100 - c128 >= 0
index_129: 2 s23 + 1 s25 + 1 s30 + 1 s34 + 3 s36 + 2 s38 + 1 s41 + 1 s43 + 1 s52 + 1 s60 + 1 s64 + 3 s66 + 1 s68 + 1 s71 + 1 s72 + 1 s74 + 1 s132 - c129 >= 0
index_130: 1 s68 + 1 s69 + 1 s77 + 1 s78 + 1 s80 + 1 s86 + 1 s91 + 1 s92 + 1 s94 + 1 s100 - c130 >= 0
index_131: 3 s12 + 1 s14 + 1 s108 + 1 s114 - c131 >= 0
index_132: 2 s52 + 3 s53 + 2 s57 + 1 s60 + 1 s61 + 1 s73 - c132 >= 0
index_133: 1 s23 + 2 s30 + 2 s52 + 1 s59 + 2 s60 - c133 >= 0
index_134: 1 s3 + 2 s5 + 1 s6 + 1 s7 + 1 s11 + 1 s12 + 1 s107 + 1 s114 + 1 s119 + 1 s121 + 1 s123 + 2 s125 - c134 >= 0
index_135: 6 s8 + 27 s9 - c135 >= 0
index_136: 6 s7 + 2 s9 - c136 >= 0
index_137: 2 s36 + 1 s37 + 2 s66 + 1 s67 + 1 s132 - c137 >= 0
index_138: 2 s7 + 3 s12 + 1 s14 + 1 s108 + 1 s114 + 3 s123 - c138 >= 0
index_139: 1 s27 + 1 s37 + 4 s57 + 1 s67 + 2 s72 + 1 s109 - c139 >= 0
index_140: 2 s9 + 1 s121 + 11 s125 - c140 >= 0
index_141: 1 s40 + 2 s68 + 1 s70 + 1 s71 + 1 s132 - c141 >= 0
index_142: 2 s33 + 1 s34 + 1 s36 + 1 s39 + 1 s41 + 1 s42 + 1 s63 + 1 s64 + 1 s66 + 1 s69 + 1 s71 + 1 s72 + 1 s73 - c142 >= 0
index_143: 2 s16 + 1 s19 + 1 s20 + 1 s22 + 2 s23 + 2 s27 + 1 s28 + 1 s29 + 2 s30 + 2 s31 + 1 s32 + 4 s33 + 3 s34 + 1 s36 + 1 s37 + 1 s38 + 1 s41 + 1 s48 + 1 s49 + 1 s51 + 3 s52 + 3 s57 + 1 s58 + 2 s59 + 2 s60 + 3 s61 + 1 s62 + 4 s63 + 3 s64 + 1 s66 + 1 s67 + 1 s71 + 1 s72 - c143 >= 0
index_144: 2 s43 + 2 s74 + 1 s81 + 1 s88 + 1 s95 + 1 s102 + 1 s108 + 2 s130 + 1 s131 + 1 s132 - c144 >= 0
index_145: 3 s14 + 1 s15 + 1 s104 + 1 s117 + 1 s118 + 3 s128 + 2 s129 - c145 >= 0
index_146: 1 s9 + 3 s10 + 1 s11 + 1 s105 + 1 s120 + 1 s125 + 1 s126 - c146 >= 0
index_147: 1 s3 + 1 s15 + 1 s32 + 1 s80 + 1 s83 + 1 s85 + 1 s94 + 1 s96 + 1 s98 + 1 s107 + 1 s112 + 1 s127 + 2 s128 + 3 s129 + 1 s132 - c147 >= 0
index_148: 3 s7 + 1 s10 + 4 s11 + 1 s114 + 1 s119 + 1 s124 + 1 s125 + 1 s128 - c148 >= 0
index_149: 3 s5 + 4 s10 + 1 s12 + 3 s119 + 4 s124 + 4 s125 + 2 s128 + 2 s129 - c149 >= 0
index_150: 1 s7 + 3 s10 + 2 s11 + 2 s119 + 1 s123 + 1 s124 + 3 s125 + 1 s128 + 1 s129 - c150 >= 0
index_151: 1 s6 + 2 s11 + 1 s105 + 1 s119 - c151 >= 0
index_152: 1 s38 + 5 s42 + 1 s71 + 5 s73 + 1 s132 - c152 >= 0
index_153: 8 s3 - c153 >= 0
index_154: 2 s3 + 3 s7 + 1 s107 - c154 >= 0
index_155: 5 s119 + 1 s123 + 5 s126 + 1 s128 - c155 >= 0
index_156: 2 s34 + 2 s40 + 1 s64 + 2 s70 - c156 >= 0
index_157: 4 s40 + 5 s70 - c157 >= 0
index_158: 2 s6 + 1 s7 + 1 s10 + 1 s11 + 3 s119 - c158 >= 0
index_159: 1 s7 + 1 s10 + 2 s11 + 6 s119 + 2 s126 - c159 >= 0
index_160: 1 s14 + 1 s105 + 2 s108 + 1 s114 + 1 s123 - c160 >= 0
index_161: 1 s25 + 1 s28 + 1 s29 + 1 s38 + 1 s54 + 1 s58 + 1 s59 + 1 s68 + 1 s76 + 1 s83 + 1 s85 + 1 s90 + 1 s96 + 1 s98 + 1 s119 + 1 s125 + 1 s128 + 2 s132 - c161 >= 0
index_162: 3 s6 + 2 s9 + 1 s10 + 1 s11 + 1 s12 + 2 s118 + 7 s119 + 3 s121 + 3 s122 + 1 s125 + 6 s126 - c162 >= 0
index_163: 1 s10 + 1 s11 + 1 s120 + 1 s124 + 4 s125 + 1 s126 + 1 s132 - c163 >= 0
index_164: 2 s10 + 4 s118 + 1 s125 + 1 s130 - c164 >= 0
index_165: 1 s14 + 1 s15 + 2 s81 + 2 s95 + 1 s112 + 2 s128 + 3 s129 + 3 s130 + 1 s131 + 2 s132 + 1 s133 - c165 >= 0
length: 114 s0 + 85 s1 + 117 s2 + 222 s3 + 118 s4 + 109 s5 + 110 s6 + 186 s7 + 125 s8 + 245 s9 + 152 s10 + 195 s11 + 210 s12 + 16 s13 + 137 s14 + 120 s15 + 265 s16 + 6 s17 + 61 s18 + 85 s19 + 16 s20 + 16 s21 + 82 s22 + 118 s23 + 75 s24 + 131 s25 + 30 s26 + 76 s27 + 89 s28 + 127 s29 + 58 s30 + 80 s31 + 82 s32 + 100 s33 + 128 s34 + 1 s35 + 157 s36 + 100 s37 + 186 s38 + 96 s39 + 52 s40 + 148 s41 + 83 s42 + 179 s43 + 88 s44 + 265 s45 + 6 s46 + 61 s47 + 85 s48 + 16 s49 + 16 s50 + 82 s51 + 118 s52 + 75 s53 + 131 s54 + 90 s55 + 73 s56 + 76 s57 + 89 s58 + 127 s59 + 58 s60 + 80 s61 + 82 s62 + 100 s63 + 128 s64 + 1 s65 + 157 s66 + 118 s67 + 186 s68 + 96 s69 + 52 s70 + 148 s71 + 57 s72 + 83 s73 + 179 s74 + 88 s75 + 179 s76 + 85 s77 + 59 s78 + 58 s79 + 79 s80 + 103 s81 + 59 s82 + 142 s83 + 7 s84 + 101 s85 + 145 s86 + 7 s87 + 88 s88 + 1 s89 + 179 s90 + 85 s91 + 59 s92 + 58 s93 + 79 s94 + 103 s95 + 142 s96 + 7 s97 + 101 s98 + 31 s99 + 115 s100 + 7 s101 + 88 s102 + 1 s103 + 96 s104 + 158 s105 + 121 s106 + 216 s107 + 180 s108 + 88 s109 + 93 s110 + 5 s111 + 183 s112 + 103 s113 + 186 s114 + 103 s115 + 173 s116 + 108 s117 + 157 s118 + 255 s119 + 44 s120 + 140 s121 + 92 s122 + 178 s123 + 81 s124 + 270 s125 + 145 s126 + 79 s127 + 164 s128 + 139 s129 + 126 s130 + 106 s131 + 301 s132 + 93 s133 <= 2850



Binary
c0
c1
c2
c3
c4
c5
c6
c7
c8
c9
c10
c11
c12
c13
c14
c15
c16
c17
c18
c19
c20
c21
c22
c23
c24
c25
c26
c27
c28
c29
c30
c31
c32
c33
c34
c35
c36
c37
c38
c39
c40
c41
c42
c43
c44
c45
c46
c47
c48
c49
c50
c51
c52
c53
c54
c55
c56
c57
c58
c59
c60
c61
c62
c63
c64
c65
c66
c67
c68
c69
c70
c71
c72
c73
c74
c75
c76
c77
c78
c79
c80
c81
c82
c83
c84
c85
c86
c87
c88
c89
c90
c91
c92
c93
c94
c95
c96
c97
c98
c99
c100
c101
c102
c103
c104
c105
c106
c107
c108
c109
c110
c111
c112
c113
c114
c115
c116
c117
c118
c119
c120
c121
c122
c123
c124
c125
c126
c127
c128
c129
c130
c131
c132
c133
c134
c135
c136
c137
c138
c139
c140
c141
c142
c143
c144
c145
c146
c147
c148
c149
c150
c151
c152
c153
c154
c155
c156
c157
c158
c159
c160
c161
c162
c163
c164
c165
s0
s1
s2
s3
s4
s5
s6
s7
s8
s9
s10
s11
s12
s13
s14
s15
s16
s17
s18
s19
s20
s21
s22
s23
s24
s25
s26
s27
s28
s29
s30
s31
s32
s33
s34
s35
s36
s37
s38
s39
s40
s41
s42
s43
s44
s45
s46
s47
s48
s49
s50
s51
s52
s53
s54
s55
s56
s57
s58
s59
s60
s61
s62
s63
s64
s65
s66
s67
s68
s69
s70
s71
s72
s73
s74
s75
s76
s77
s78
s79
s80
s81
s82
s83
s84
s85
s86
s87
s88
s89
s90
s91
s92
s93
s94
s95
s96
s97
s98
s99
s100
s101
s102
s103
s104
s105
s106
s107
s108
s109
s110
s111
s112
s113
s114
s115
s116
s117
s118
s119
s120
s121
s122
s123
s124
s125
s126
s127
s128
s129
s130
s131
s132
s133
End